cmake-build-cppclion/linear_programming/sddp_overdraft/iter_4.sol
# Solution for model (null)_copy
# Objective value = -1.3150816469087558e+03
q_1 5.7370539744829827e+01
W0_1 0
W1_1 1.0737053974482983e+02
W2_1 0
theta_2 -1.4331892406280685e+03
